&control
    calculation = 'bands'
    restart_mode='from_scratch'
    prefix = 'GaAs'
    outdir = './outdir'
    pseudo_dir='/home/kirill/Desktop/src/q-e-pseudos/'
/
&system
    ibrav = 2, celldm(1)=10.689034072
    nat = 2, ntyp = 2
    ecutwfc = 50.0, ecutrho = 400
    nbnd=36,
/
&electrons
    conv_thr=1e-8
/
ATOMIC_SPECIES
Ga 69.723 Ga.pbesol-dnl-rrkjus_psl.1.0.0.UPF
As 74.921595 As.pbesol-n-rrkjus_psl.0.2.UPF

ATOMIC_POSITIONS (alat)
Ga  0.00000000  0.00000000  0.00000000 
As  0.25000000  0.25000000  0.25000000 
K_POINTS {crystal_b}
5
  0.0000 0.5000 0.0000 20 !L
  0.0000 0.0000 0.0000 30 !Gamma
  -0.500 0.0000 -0.500 10 !X
  -0.375 0.2500 -0.375 30 !U
  0.0000 0.0000 0.0000 20 !Gamma
