&bands
  outdir='./outdir/'
  prefix='GaAs'
  filband='GaAs.bands.dat'
/
