&DOS
    prefix='GaAs'
    outdir='./outdir/'
    fildos='gaas.dos.dat'
    emin=-6
    emax=-5
/
