&DOS
    prefix='GaAs'
    outdir='./outdir/'
    fildos='gaas.dos.dat'
    emin=5
    emax=25
/
