&DOS
    prefix='GaAs'
    outdir='./outdir/'
    fildos='gaas.dos.dat'
    emin=-7
    emax=10
/
