&CONTROL
    calculation='vc-relax'
    prefix='GaAs'
    restart_mode='from_scratch'
    outdir='./outdir'
    pseudo_dir='/home/kirill/Desktop/src/q-e-pseudos/'
    tprnfor   = .true.
    etot_conv_thr = 1e-5
    forc_conv_thr = 1e-4
/
&system
    ibrav = 2, celldm(1)=9.4486
    nat = 2, ntyp = 2, nspin=2
    ecutwfc = 50.0, ecutrho = 400
    starting_magnetization(1)=  0.2
    starting_magnetization(2)= -0.2
    tot_magnetization = 0.0
    nbnd=36,
 /
 &electrons
    mixing_beta = 0.3,
    conv_thr = 1d-9
 /
&ions
/
&cell
    cell_dofree='ibrav'
/
ATOMIC_SPECIES
Ga 69.723 Ga.pbesol-dnl-rrkjus_psl.1.0.0.UPF
As 74.921595 As.pbesol-n-rrkjus_psl.0.2.UPF

ATOMIC_POSITIONS (alat)
Ga  0.00000000  0.00000000  0.00000000 0 0 0
As  0.25000000  0.25000000  0.25000000 0 0 0
K_POINTS (automatic)
8 8 8 0 0 0
